c ind 11 12 15 16 25 28 3 35 38 4 0
c ind 50 59 0
p cnf 64 208
-1 2 0
-1 5 0
-10 -11 0
-13 -14 -12 0
-13 14 12 0
-14 -15 0
-16 0
-17 -18 19 0
-17 18 41 0
-18 -16 9 0
-18 -9 16 0
-19 -20 29 0
-19 20 39 0
-2 -3 4 0
-2 -4 3 0
-20 -16 21 0
-20 -21 16 0
-21 -22 -16 0
-21 22 16 0
-22 -23 -26 0
-22 23 26 0
-23 -24 -12 0
-23 24 12 0
-24 -25 0
-26 -27 -12 0
-26 27 12 0
-27 -28 0
-29 -30 12 0
-29 30 16 0
-30 -16 31 0
-30 -31 16 0
-31 -32 -16 0
-31 32 16 0
-32 -33 -36 0
-32 33 36 0
-33 -34 -12 0
-33 34 12 0
-34 -35 0
-36 -37 -12 0
-36 37 12 0
-37 -38 0
-39 -40 12 0
-39 40 16 0
-40 -16 36 0
-40 -36 16 0
-41 -42 43 0
-41 42 29 0
-42 -12 23 0
-42 -23 12 0
-43 -20 29 0
-43 20 44 0
-44 -45 51 0
-44 45 63 0
-45 -16 46 0
-45 -46 16 0
-46 -47 -16 0
-46 47 16 0
-47 -13 -48 0
-47 13 48 0
-48 -49 -12 0
-48 49 12 0
-49 -50 0
-5 -6 17 0
-5 6 64 0
-51 -52 53 0
-51 52 60 0
-52 -13 16 0
-52 -16 13 0
-53 -54 60 0
-53 54 39 0
-54 -16 55 0
-54 -55 16 0
-55 -56 -16 0
-55 56 16 0
-56 -26 -57 0
-56 26 57 0
-57 -58 -12 0
-57 58 12 0
-58 -59 0
-6 -16 7 0
-6 -7 16 0
-60 -61 12 0
-60 61 62 0
-61 -12 36 0
-61 -36 12 0
-62 -30 12 0
-62 30 39 0
-63 -52 39 0
-63 52 60 0
-64 -18 39 0
-64 18 41 0
-7 -8 -16 0
-7 8 16 0
-8 -9 -13 0
-8 9 13 0
-9 -10 -12 0
-9 10 12 0
1 -2 -5 0
1 0
10 11 0
12 0
13 -12 14 0
13 -14 12 0
14 15 0
17 -18 -19 0
17 -19 -41 0
17 18 -41 0
18 -9 -16 0
18 9 16 0
19 -20 -29 0
19 -29 -39 0
19 20 -39 0
2 -3 -4 0
2 3 4 0
20 -21 -16 0
20 21 16 0
21 -16 22 0
21 -22 16 0
22 -23 26 0
22 -26 23 0
23 -12 24 0
23 -24 12 0
24 25 0
26 -12 27 0
26 -27 12 0
27 28 0
29 -12 -16 0
29 -30 -12 0
29 30 -16 0
30 -31 -16 0
30 31 16 0
31 -16 32 0
31 -32 16 0
32 -33 36 0
32 -36 33 0
33 -12 34 0
33 -34 12 0
34 35 0
36 -12 37 0
36 -37 12 0
37 38 0
39 -12 -16 0
39 -40 -12 0
39 40 -16 0
40 -36 -16 0
40 36 16 0
41 -42 -43 0
41 -43 -29 0
41 42 -29 0
42 -23 -12 0
42 23 12 0
43 -20 -29 0
43 -29 -44 0
43 20 -44 0
44 -45 -51 0
44 -51 -63 0
44 45 -63 0
45 -46 -16 0
45 46 16 0
46 -16 47 0
46 -47 16 0
47 -13 48 0
47 -48 13 0
48 -12 49 0
48 -49 12 0
49 50 0
5 -17 -64 0
5 -6 -17 0
5 6 -64 0
51 -52 -53 0
51 -53 -60 0
51 52 -60 0
52 -13 -16 0
52 13 16 0
53 -54 -60 0
53 -60 -39 0
53 54 -39 0
54 -55 -16 0
54 55 16 0
55 -16 56 0
55 -56 16 0
56 -26 57 0
56 -57 26 0
57 -12 58 0
57 -58 12 0
58 59 0
6 -7 -16 0
6 7 16 0
60 -12 -62 0
60 -61 -12 0
60 61 -62 0
61 -36 -12 0
61 36 12 0
62 -12 -39 0
62 -30 -12 0
62 30 -39 0
63 -39 -60 0
63 -52 -39 0
63 52 -60 0
64 -18 -39 0
64 -39 -41 0
64 18 -41 0
7 -16 8 0
7 -8 16 0
8 -13 9 0
8 -9 13 0
9 -10 12 0
9 -12 10 0
